multiobj/instances/uniform/Ter.5.4.1.00.1.in
5 4
0 771 544 977 248 
771 0 574 244 593 
544 574 0 691 433 
977 244 691 0 73 
248 593 433 73 0 
0 753 137 945 409 
753 0 330 862 685 
137 330 0 346 71 
945 862 346 0 625 
409 685 71 625 0 
0 753 137 945 409 
753 0 330 862 685 
137 330 0 346 71 
945 862 346 0 625 
409 685 71 625 0 
0 753 137 945 409 
753 0 330 862 685 
137 330 0 346 71 
945 862 346 0 625 
409 685 71 625 0 
0 753 137 945 409 
753 0 330 862 685 
137 330 0 346 71 
945 862 346 0 625 
409 685 71 625 0 
