multiobj/solutions/Ter.5.4.1.00.1.out
1 4
3 1 0 4 2 
4446056 4446056 4446056 4446056 
